pyomo_demo_suite/Demo2/Demo2.dat
#*******************************************************************************
# Data exported from Hydra using PyomoPlugin.
# (c) Copyright 2015, University of Manchester
# Network-ID:  6
# Scenario-ID: 6
#*******************************************************************************

set  nodes :=  Ag1 EndPt J1 SR1 Urb1;

set  links:= 
J1 EndPt
J1 Urb1
SR1 Ag1
SR1 J1;

#Nodes types

set  agricultural:= 
Ag1
;

set  discharge:= 
EndPt
;

set  junction:= 
J1
;

set  surface_reservoir:= 
SR1
;

set  urban:= 
Urb1
;

set  river_section:= 

J1 EndPt
J1 Urb1
SR1 Ag1
SR1 J1;

set time_step:= 1 2 3 4 5 6;

set actual_time_step:= 2000-01-01 00:00:00 2000-02-01 00:00:00 2000-03-01 00:00:00 2000-04-01 00:00:00 2000-05-01 00:00:00 2000-06-01 00:00:00;

param consumption_coefficient_agricultural:=
 Ag1  1.0;

param initial_storage_surface_reservoir:=
 SR1  450.0;

param inflow_surface_reservoir:
  1  2  3  4  5  6:=
  SR1        300.000000        320.000000        320.000000        330.000000        310.000000        310.000000;

param storagelower_surface_reservoir:
  1  2  3  4  5  6:=
  SR1         10.000000         10.000000         10.000000         10.000000         10.000000         10.000000;

param storageupper_surface_reservoir:
  1  2  3  4  5  6:=
  SR1        500.000000        500.000000        500.000000        500.000000        500.000000        500.000000;

param consumption_coefficient_urban:=
 Urb1  1.0;

param cost_river_section:
  1  2  3  4  5  6:=
  [J1,EndPt]         10.000000         10.000000         10.000000         10.000000         10.000000         10.000000
  [J1,Urb1]          1.000000         10.000000          7.000000          2.000000          3.000000          5.000000
  [SR1,Ag1]         20.000000          8.000000         20.000000         15.000000         19.000000         10.000000
  [SR1,J1]         15.000000         15.000000         15.000000         15.000000         15.000000         15.000000;

param flow_multiplier_river_section:
  1  2  3  4  5  6:=
  [J1,EndPt]          1.000000          1.000000          1.000000          1.000000          1.000000          1.000000
  [J1,Urb1]          0.950000          0.850000          0.900000          0.850000          0.900000          1.000000
  [SR1,Ag1]          1.000000          1.000000          1.000000          1.000000          1.000000          1.000000
  [SR1,J1]          1.000000          0.900000          1.000000          0.950000          1.000000          1.000000;

param min_flow_river_section:
  1  2  3  4  5  6:=
  [J1,EndPt]         10.000000         30.000000         30.000000         30.000000         30.000000         30.000000
  [J1,Urb1]         20.000000         10.000000         25.000000         20.000000         20.000000         20.000000
  [SR1,Ag1]         25.000000         15.000000         10.000000         10.000000         15.000000         15.000000
  [SR1,J1]         10.000000         10.000000         10.000000         10.000000         10.000000         10.000000;

param max_flow_river_section:
  1  2  3  4  5  6:=
  [J1,EndPt]        200.000000        200.000000        200.000000        200.000000        200.000000        200.000000
  [J1,Urb1]        220.000000        250.000000        240.000000        230.000000        240.000000        250.000000
  [SR1,Ag1]        200.000000        210.000000        210.000000        200.000000        200.000000        200.000000
  [SR1,J1]        310.000000        300.000000        300.000000        300.000000        310.000000        300.000000;
